100
128
55
25
26
60
56
25
6
40
14
3
29
17
28
36
42
9
48
57
17
16
53
27
62
13
48
9
45
45
25
44
18
47
13
55
52
38
43
13
3
38
44
13
12
14
38
58
16
28
24
18
43
18
14
48
2
46
14
19
56
2
14
58
13
4
31
33
16
14
44
52
46
57
19
3
19
30
30
23
23
3
8
2
58
43
1
2
16
56
3
18
41
48
40
15
21
64
4
40
31
64